# Solution for model GasLib-40
# Objective value = 4.4228914107809928e+01
loadshed[innode_1] 0
loadshed[innode_2] 0
loadshed[innode_3] 0
loadshed[innode_4] 0
loadshed[innode_5] 0
loadshed[innode_6] 0
loadshed[innode_7] 0
loadshed[innode_8] 0
loadshed[source_1] -1.3561033185937110e-01
loadshed[source_2] 2.7558297369413065e-02
loadshed[source_3] 3.8782201610743161e-01
loadshed[sink_1] 0
loadshed[sink_2] 0
loadshed[sink_3] 0
loadshed[sink_4] 0
loadshed[sink_5] 0
loadshed[sink_6] 0
loadshed[sink_7] 0
loadshed[sink_8] 0
loadshed[sink_9] 0
loadshed[sink_10] 0
loadshed[sink_11] 0
loadshed[sink_12] 1
loadshed[sink_13] 0
loadshed[sink_14] 0
loadshed[sink_15] 0
loadshed[sink_16] 0
loadshed[sink_17] 0
loadshed[sink_18] 0
loadshed[sink_19] 0
loadshed[sink_20] 0
loadshed[sink_21] 1
loadshed[sink_22] 0
loadshed[sink_23] 0
loadshed[sink_24] 0.704443155636785
loadshed[sink_25] 0
loadshed[sink_26] 0
loadshed[sink_27] 0
loadshed[sink_28] 0
loadshed[sink_29] 0
flow[source_1,sink_3] 1.7952895281096238e+02
flow[innode_1,sink_16] 1.6354166666666970e+01
flow[innode_6,sink_13] 1.7699779143664159e+01
flow[sink_13,sink_14] 1.3456124769974913e+00
flow[sink_14,sink_10] -1.5008554189668985e+01
flow[sink_25,sink_26] 1.1578838882454227e+02
flow[sink_26,sink_9] 3.2708333333334551e+01
flow[sink_9,sink_18] 1.6354166666667879e+01
flow[sink_26,sink_4] 6.6725888824541073e+01
flow[sink_4,sink_20] 5.0371722157874387e+01
flow[sink_18,sink_6] 0
flow[sink_25,innode_8] -146.820619477626
flow[sink_6,sink_7] -4.9062500000000313e+01
flow[sink_6,sink_22] 3.2708333333333641e+01
flow[sink_7,sink_24] 4.8335858921900812e+00
flow[sink_22,sink_1] 1.6354166666666970e+01
flow[sink_24,sink_21] 0
flow[sink_21,sink_12] 0
flow[sink_7,sink_5] -7.0250252558857056e+01
flow[sink_5,sink_17] -8.6604419225523728e+01
flow[sink_17,sink_4] 0
flow[sink_17,sink_8] -1.0295858589219040e+02
flow[sink_3,sink_23] 16.3541666666697
flow[sink_8,sink_20] -1.1931275255885707e+02
flow[sink_25,sink_20] 8.5295197067649241e+01
flow[sink_25,sink_15] -8.8316912224896768e+01
flow[sink_15,sink_29] -5.8857643382875615e+01
flow[sink_29,sink_28] 1.6354166666667879e+01
flow[sink_29,sink_2] 6.2167602175354489e+01
flow[sink_2,sink_15] 4.5813435508687817e+01
flow[sink_29,innode_7] -1.5373357889156466e+02
flow[innode_4,sink_19] 9.6779387523016112e+01
flow[sink_19,innode_3] 3.1266404000786128e+01
flow[innode_4,innode_5] 0
flow[sink_27,innode_5] 0
flow[sink_27,sink_19] -1.6354166666679703e+01
flow[sink_10,sink_11] 3.2708333333333641e+01
flow[sink_10,innode_2] -3.2804650188883613e+01
flow[sink_10,innode_3] -3.1266404000786128e+01
flow[innode_6,sink_25] -1.7699779143664159e+01
flow[sink_11,innode_1] 1.6354166666666970e+01
flow[sink_19,innode_2] 3.2804650188883613e+01
flow[source_3,innode_4] 9.6779387523016112e+01
flow[source_2,innode_7] 1.5373357889156466e+02
flow[sink_3,innode_8] 146.820619477626
pressure[innode_1] 7.5206907858429034e+01
pressure[innode_2] 7.7092470416157738e+01
pressure[innode_3] 7.7023234505034168e+01
pressure[innode_4] 81.01325
pressure[innode_5] 7.6741340419014236e+01
pressure[innode_6] 7.4748709639722122e+01
pressure[innode_7] 81.01325
pressure[innode_8] 8.0413153293298762e+01
pressure[source_1] 81.01325
pressure[source_2] 81.01325
pressure[source_3] 81.01325
pressure[sink_1] 3.7727569024462726e+00
pressure[sink_2] 7.5326703491757812e+01
pressure[sink_3] 8.0413153293298762e+01
pressure[sink_4] 5.8110099214097644e+01
pressure[sink_5] 3.5763876371975954e+01
pressure[sink_6] 5.8738345128336462e+00
pressure[sink_7] 6.5473456905337777e+00
pressure[sink_8] 4.6100174535096428e+01
pressure[sink_9] 6.4636123245674838e+01
pressure[sink_10] 7.5358609166032579e+01
pressure[sink_11] 7.5206907858429034e+01
pressure[sink_12] 1.01325
pressure[sink_13] 7.4651133715210975e+01
pressure[sink_14] 7.4648725627062561e+01
pressure[sink_15] 75.1771327219405
pressure[sink_16] 7.4185258023611354e+01
pressure[sink_17] 4.2215279609555353e+01
pressure[sink_18] 6.4044380751875138e+01
pressure[sink_19] 7.7092470416157738e+01
pressure[sink_20] 5.4414595460870814e+01
pressure[sink_21] 1.01325
pressure[sink_22] 4.8365260448012828e+00
pressure[sink_23] 8.0248435281638976e+01
pressure[sink_24] 1.01325
pressure[sink_25] 7.4748709639722122e+01
pressure[sink_26] 6.6593801413559447e+01
pressure[sink_27] 7.6741340419014236e+01
pressure[sink_28] 7.6606196741636850e+01
pressure[sink_29] 7.6901479015254026e+01
interdiction[source_1,sink_3] 0
interdiction[innode_1,sink_16] 0
interdiction[innode_6,sink_13] 0
interdiction[sink_13,sink_14] 0
interdiction[sink_14,sink_10] 0
interdiction[sink_25,sink_26] 0
interdiction[sink_26,sink_9] 0
interdiction[sink_9,sink_18] 0
interdiction[sink_26,sink_4] 0
interdiction[sink_4,sink_20] 0
interdiction[sink_18,sink_6] 1
interdiction[sink_25,innode_8] 0
interdiction[sink_6,sink_7] 0
interdiction[sink_6,sink_22] 0
interdiction[sink_7,sink_24] 0
interdiction[sink_22,sink_1] 0
interdiction[sink_24,sink_21] 0
interdiction[sink_21,sink_12] 0
interdiction[sink_7,sink_5] 0
interdiction[sink_5,sink_17] 0
interdiction[sink_17,sink_4] 1
interdiction[sink_17,sink_8] 0
interdiction[sink_3,sink_23] 0
interdiction[sink_8,sink_20] 0
interdiction[sink_25,sink_20] 0
interdiction[sink_25,sink_15] 0
interdiction[sink_15,sink_29] 0
interdiction[sink_29,sink_28] 0
interdiction[sink_29,sink_2] 0
interdiction[sink_2,sink_15] 0
interdiction[sink_29,innode_7] 0
interdiction[innode_4,sink_19] 0
interdiction[sink_19,innode_3] 0
interdiction[innode_4,innode_5] 1
interdiction[sink_27,innode_5] 0
interdiction[sink_27,sink_19] 0
interdiction[sink_10,sink_11] 0
interdiction[sink_10,innode_2] 0
interdiction[sink_10,innode_3] 0
interdiction[innode_6,sink_25] 0
interdiction[sink_11,innode_1] 0
interdiction[sink_19,innode_2] 0
interdiction[source_3,innode_4] 0
interdiction[source_2,innode_7] 0
interdiction[sink_3,innode_8] 0
WCcheckFlow[source_1,sink_3] 39
WCcheckFlow[innode_1,sink_16] 1
WCcheckFlow[innode_6,sink_13] 13
WCcheckFlow[sink_13,sink_14] 12
WCcheckFlow[sink_14,sink_10] 11
WCcheckFlow[sink_25,sink_26] 15
WCcheckFlow[sink_26,sink_9] 2
WCcheckFlow[sink_9,sink_18] 1
WCcheckFlow[sink_26,sink_4] 12
WCcheckFlow[sink_4,sink_20] 11
WCcheckFlow[sink_18,sink_6] 0
WCcheckFlow[sink_25,innode_8] -36
WCcheckFlow[sink_6,sink_7] -3
WCcheckFlow[sink_6,sink_22] 2
WCcheckFlow[sink_7,sink_24] 3
WCcheckFlow[sink_22,sink_1] 1
WCcheckFlow[sink_24,sink_21] 2
WCcheckFlow[sink_21,sink_12] 1
WCcheckFlow[sink_7,sink_5] -7
WCcheckFlow[sink_5,sink_17] -8
WCcheckFlow[sink_17,sink_4] 0
WCcheckFlow[sink_17,sink_8] -9
WCcheckFlow[sink_3,sink_23] 1
WCcheckFlow[sink_8,sink_20] -10
WCcheckFlow[sink_25,sink_20] 0
WCcheckFlow[sink_25,sink_15] 6
WCcheckFlow[sink_15,sink_29] 5
WCcheckFlow[sink_29,sink_28] 1
WCcheckFlow[sink_29,sink_2] 1
WCcheckFlow[sink_2,sink_15] 0
WCcheckFlow[sink_29,innode_7] 2
WCcheckFlow[innode_4,sink_19] -2
WCcheckFlow[sink_19,innode_3] -5
WCcheckFlow[innode_4,innode_5] 0
WCcheckFlow[sink_27,innode_5] 1
WCcheckFlow[sink_27,sink_19] -2
WCcheckFlow[sink_10,sink_11] 3
WCcheckFlow[sink_10,innode_2] 1
WCcheckFlow[sink_10,innode_3] 6
WCcheckFlow[innode_6,sink_25] -14
WCcheckFlow[sink_11,innode_1] 2
WCcheckFlow[sink_19,innode_2] 0
WCcheckFlow[source_3,innode_4] -1
WCcheckFlow[source_2,innode_7] -1
WCcheckFlow[sink_3,innode_8] 37
